certificates/rado_a7_c102_N17.cnf
c Rad2 upper bound instance: x1 + 7*x2 - x3 = 102, interval [1,17]
p cnf 17 78
1 4 15 0
-1 -4 -15 0
1 11 16 0
-1 -11 -16 0
2 5 15 0
-2 -5 -15 0
2 12 16 0
-2 -12 -16 0
3 6 15 0
-3 -6 -15 0
3 13 16 0
-3 -13 -16 0
4 7 15 0
-4 -7 -15 0
4 14 16 0
-4 -14 -16 0
1 5 14 0
-1 -5 -14 0
5 8 15 0
-5 -8 -15 0
5 15 16 0
-5 -15 -16 0
2 6 14 0
-2 -6 -14 0
6 9 15 0
-6 -9 -15 0
6 16 0
-6 -16 0
3 7 14 0
-3 -7 -14 0
7 10 15 0
-7 -10 -15 0
7 16 17 0
-7 -16 -17 0
4 8 14 0
-4 -8 -14 0
8 11 15 0
-8 -11 -15 0
5 9 14 0
-5 -9 -14 0
9 12 15 0
-9 -12 -15 0
6 10 14 0
-6 -10 -14 0
10 13 15 0
-10 -13 -15 0
7 11 14 0
-7 -11 -14 0
11 14 15 0
-11 -14 -15 0
1 12 13 0
-1 -12 -13 0
8 12 14 0
-8 -12 -14 0
12 15 0
-12 -15 0
2 13 0
-2 -13 0
9 13 14 0
-9 -13 -14 0
13 15 16 0
-13 -15 -16 0
3 13 14 0
-3 -13 -14 0
10 14 0
-10 -14 0
14 15 17 0
-14 -15 -17 0
4 13 15 0
-4 -13 -15 0
5 13 16 0
-5 -13 -16 0
12 14 16 0
-12 -14 -16 0
6 13 17 0
-6 -13 -17 0
13 14 17 0
-13 -14 -17 0
