certificates/rado_a7_c102_N17.drat
-15 7 -17 0
-16 -17 0
-17 0
-15 16 0
16 0
-6 0
13 0
-2 0
-3 0
-15 0
-5 0
0
